language Essence 1.3

letting blksize_delta be function(1 --> 7, 2 --> 7, 3 --> 7, 4 --> 7, 5 --> 7, 6 --> 7, 7 --> 7)
letting maxcars be function(1 --> 10, 2 --> 10, 3 --> 10, 4 --> 10, 5 --> 10, 6 --> 10, 7 --> 10)
letting n_cars be 285
letting n_classes be 91
letting n_options be 7
letting quantity be
        function(1 --> 3, 2 --> 3, 3 --> 14, 4 --> 3, 5 --> 3, 6 --> 3, 7 --> 3, 8 --> 3, 9 --> 3, 10 --> 3, 11 --> 4,
                 12 --> 3, 13 --> 3, 14 --> 3, 15 --> 3, 16 --> 3, 17 --> 3, 18 --> 3, 19 --> 3, 20 --> 3, 21 --> 3,
                 22 --> 3, 23 --> 3, 24 --> 3, 25 --> 3, 26 --> 3, 27 --> 3, 28 --> 3, 29 --> 3, 30 --> 3, 31 --> 3,
                 32 --> 3, 33 --> 3, 34 --> 3, 35 --> 3, 36 --> 3, 37 --> 3, 38 --> 3, 39 --> 3, 40 --> 3, 41 --> 3,
                 42 --> 3, 43 --> 3, 44 --> 3, 45 --> 3, 46 --> 3, 47 --> 3, 48 --> 3, 49 --> 3, 50 --> 3, 51 --> 3,
                 52 --> 3, 53 --> 3, 54 --> 3, 55 --> 3, 56 --> 3, 57 --> 3, 58 --> 3, 59 --> 3, 60 --> 3, 61 --> 3,
                 62 --> 3, 63 --> 3, 64 --> 3, 65 --> 3, 66 --> 3, 67 --> 3, 68 --> 3, 69 --> 3, 70 --> 3, 71 --> 3,
                 72 --> 3, 73 --> 3, 74 --> 3, 75 --> 3, 76 --> 3, 77 --> 3, 78 --> 3, 79 --> 3, 80 --> 3, 81 --> 3,
                 82 --> 3, 83 --> 3, 84 --> 3, 85 --> 3, 86 --> 3, 87 --> 3, 88 --> 3, 89 --> 3, 90 --> 3, 91 --> 3)
letting usage be
        relation((1, 3), (1, 5), (1, 7), (2, 2), (2, 5), (3, 5), (3, 6), (4, 7), (5, 2), (6, 7), (7, 1), (8, 1), (8, 6),
                 (9, 2), (9, 6), (10, 5), (10, 7), (11, 7), (12, 1), (12, 3), (13, 5), (13, 7), (14, 7), (15, 7),
                 (16, 6), (17, 6), (18, 2), (18, 3), (19, 6), (20, 4), (20, 6), (20, 7), (21, 6), (22, 6), (22, 7),
                 (23, 4), (23, 7), (24, 7), (25, 1), (25, 3), (25, 4), (25, 7), (26, 4), (27, 1), (27, 4), (27, 6),
                 (27, 7), (28, 1), (28, 7), (29, 2), (29, 3), (30, 1), (31, 3), (32, 4), (32, 5), (32, 6), (33, 1),
                 (33, 4), (34, 2), (34, 3), (35, 5), (35, 6), (36, 4), (36, 5), (37, 7), (38, 3), (39, 1), (40, 7),
                 (41, 1), (41, 2), (42, 7), (43, 1), (43, 6), (44, 7), (45, 4), (46, 1), (46, 3), (46, 4), (46, 6),
                 (47, 2), (47, 3), (47, 6), (48, 1), (48, 5), (49, 7), (50, 5), (50, 7), (51, 1), (51, 2), (51, 4),
                 (52, 1), (52, 4), (53, 7), (54, 5), (54, 7), (55, 1), (55, 3), (55, 4), (55, 7), (56, 4), (57, 3),
                 (57, 4), (58, 3), (58, 4), (58, 6), (58, 7), (59, 2), (60, 3), (61, 2), (61, 3), (61, 5), (62, 1),
                 (63, 5), (64, 4), (65, 3), (65, 4), (66, 1), (67, 4), (68, 5), (68, 6), (68, 7), (69, 2), (70, 3),
                 (70, 4), (70, 7), (71, 6), (71, 7), (72, 1), (73, 3), (73, 4), (74, 1), (75, 7), (76, 7), (77, 7),
                 (78, 2), (78, 3), (78, 5), (79, 1), (79, 3), (79, 4), (79, 5), (79, 7), (80, 2), (80, 3), (81, 4),
                 (81, 7), (82, 7), (83, 2), (83, 3), (83, 6), (83, 7), (84, 3), (84, 4), (84, 6), (85, 3), (85, 5),
                 (86, 5), (86, 7), (87, 3), (88, 1), (88, 4), (89, 5), (89, 6), (90, 7), (91, 4))
$ Visualisation for usage
$  1  3
$  1  5
$  1  7
$  2  2
$  2  5
$  3  5
$  3  6
$  4  7
$  5  2
$  6  7
$  7  1
$  8  1
$  8  6
$  9  2
$  9  6
$ 10  5
$ 10  7
$ 11  7
$ 12  1
$ 12  3
$ 13  5
$ 13  7
$ 14  7
$ 15  7
$ 16  6
$ 17  6
$ 18  2
$ 18  3
$ 19  6
$ 20  4
$ 20  6
$ 20  7
$ 21  6
$ 22  6
$ 22  7
$ 23  4
$ 23  7
$ 24  7
$ 25  1
$ 25  3
$ 25  4
$ 25  7
$ 26  4
$ 27  1
$ 27  4
$ 27  6
$ 27  7
$ 28  1
$ 28  7
$ 29  2
$ 29  3
$ 30  1
$ 31  3
$ 32  4
$ 32  5
$ 32  6
$ 33  1
$ 33  4
$ 34  2
$ 34  3
$ 35  5
$ 35  6
$ 36  4
$ 36  5
$ 37  7
$ 38  3
$ 39  1
$ 40  7
$ 41  1
$ 41  2
$ 42  7
$ 43  1
$ 43  6
$ 44  7
$ 45  4
$ 46  1
$ 46  3
$ 46  4
$ 46  6
$ 47  2
$ 47  3
$ 47  6
$ 48  1
$ 48  5
$ 49  7
$ 50  5
$ 50  7
$ 51  1
$ 51  2
$ 51  4
$ 52  1
$ 52  4
$ 53  7
$ 54  5
$ 54  7
$ 55  1
$ 55  3
$ 55  4
$ 55  7
$ 56  4
$ 57  3
$ 57  4
$ 58  3
$ 58  4
$ 58  6
$ 58  7
$ 59  2
$ 60  3
$ 61  2
$ 61  3
$ 61  5
$ 62  1
$ 63  5
$ 64  4
$ 65  3
$ 65  4
$ 66  1
$ 67  4
$ 68  5
$ 68  6
$ 68  7
$ 69  2
$ 70  3
$ 70  4
$ 70  7
$ 71  6
$ 71  7
$ 72  1
$ 73  3
$ 73  4
$ 74  1
$ 75  7
$ 76  7
$ 77  7
$ 78  2
$ 78  3
$ 78  5
$ 79  1
$ 79  3
$ 79  4
$ 79  5
$ 79  7
$ 80  2
$ 80  3
$ 81  4
$ 81  7
$ 82  7
$ 83  2
$ 83  3
$ 83  6
$ 83  7
$ 84  3
$ 84  4
$ 84  6
$ 85  3
$ 85  5
$ 86  5
$ 86  7
$ 87  3
$ 88  1
$ 88  4
$ 89  5
$ 89  6
$ 90  7
$ 91  4

